702 5
10 10 10 10 10 

0 0 0 0 0 0 5 2 54 106 158 170 
0 0 0 0 0 0 1 3 
8 5 3 5 10 4 2 14 4 
5 7 10 10 6 5 1 5 
6 4 8 5 7 4 1 6 
3 4 8 7 3 8 1 7 
9 4 8 9 6 7 2 12 8 
8 7 6 4 10 9 2 9 688 
5 5 7 6 10 9 1 10 
7 9 6 4 5 5 1 11 
9 9 10 5 10 4 1 13 
10 9 10 6 7 10 1 13 
3 6 8 7 6 4 3 27 18 15 
6 6 7 6 8 10 2 27 15 
6 7 8 8 3 8 1 16 
4 10 7 6 7 8 1 17 
3 10 8 6 7 10 1 19 
8 10 10 10 10 6 1 19 
3 9 10 5 5 9 1 20 
6 10 10 10 9 9 3 31 29 21 
8 8 6 6 7 7 2 34 22 
8 8 10 4 7 8 1 23 
4 10 6 10 10 6 1 24 
8 6 10 8 8 10 2 32 25 
2 8 10 9 9 8 1 26 
8 8 3 5 7 7 1 28 
4 9 4 9 6 6 1 28 
3 9 3 10 8 9 1 30 
8 9 9 5 6 7 1 30 
10 4 10 7 7 8 2 36 33 
3 10 8 8 5 5 2 34 33 
7 8 9 10 6 10 3 47 38 37 
9 6 4 9 7 10 2 47 35 
8 9 8 5 6 3 2 47 35 
3 8 7 10 4 5 1 37 
10 8 9 4 10 7 2 47 40 
8 5 9 10 10 8 1 39 
2 4 6 10 9 4 1 39 
8 7 4 7 8 9 1 40 
8 9 5 8 8 10 1 41 
1 7 10 9 6 6 2 52 42 
9 6 8 10 8 10 1 43 
8 5 10 7 10 10 1 44 
4 4 9 9 10 9 1 45 
10 9 6 10 10 10 1 46 
5 8 7 10 8 10 1 48 
8 10 8 10 5 9 1 48 
6 10 5 7 9 6 2 51 49 
7 10 6 6 10 8 1 50 
2 8 8 8 10 8 1 53 
3 7 5 10 6 3 1 53 
2 7 9 6 6 10 1 53 
0 0 0 0 0 0 1 702 
0 0 0 0 0 0 1 55 
3 8 5 2 5 6 1 56 
5 6 9 7 7 6 2 59 57 
10 8 7 8 5 8 1 58 
2 5 8 9 6 5 1 60 
7 8 10 10 10 9 1 60 
1 5 3 5 7 6 2 62 61 
5 7 6 9 6 3 2 63 536 
5 6 5 7 6 8 1 63 
7 10 6 10 10 7 1 64 
10 4 7 7 10 4 1 65 
10 10 10 3 3 10 1 66 
7 7 7 9 6 5 1 67 
7 7 9 8 7 6 2 69 68 
5 10 8 9 10 7 2 72 70 
7 7 10 7 9 8 1 70 
9 8 5 5 7 8 1 71 
2 8 7 10 5 10 1 73 
8 4 8 9 7 9 1 73 
4 7 7 9 3 6 2 76 74 
6 10 10 8 8 7 2 77 75 
8 10 5 8 6 9 2 80 79 
7 10 7 7 5 8 2 80 79 
10 9 10 8 6 7 1 78 
6 7 10 7 7 10 1 79 
5 4 7 6 10 5 2 82 81 
5 7 8 7 8 10 2 85 82 
5 10 5 10 8 10 2 85 84 
8 10 8 10 10 6 1 83 
4 8 9 10 9 7 1 84 
6 10 10 10 6 10 1 86 
3 10 6 3 10 10 1 86 
9 5 8 5 6 8 1 87 
1 9 10 8 8 10 2 90 88 
5 5 6 10 8 7 1 89 
5 9 8 10 10 10 2 93 91 
7 9 9 8 8 5 2 93 92 
9 6 6 4 10 9 1 92 
10 9 7 6 10 4 1 94 
7 10 10 6 5 8 1 94 
3 8 7 6 6 3 2 97 95 
2 5 9 8 10 5 1 96 
8 10 6 7 7 10 1 98 
6 8 6 10 8 10 1 98 
3 6 10 6 10 10 1 99 
4 6 10 8 9 7 1 100 
7 8 10 5 5 9 1 101 
10 3 8 6 9 9 2 104 102 
8 3 3 10 5 10 1 103 
9 8 8 10 10 7 1 105 
2 8 2 5 9 4 1 105 
0 0 0 0 0 0 1 702 
0 0 0 0 0 0 1 107 
9 2 4 7 3 2 2 118 108 
5 2 9 5 10 10 1 109 
2 7 10 6 8 10 1 110 
6 10 8 8 10 8 1 111 
8 4 4 8 9 8 2 116 112 
1 10 10 5 3 8 1 113 
5 4 2 6 6 6 1 114 
7 10 7 8 8 4 1 115 
1 6 7 6 5 5 1 117 
10 10 9 10 5 4 1 117 
8 10 8 8 7 8 2 121 119 
6 5 9 8 10 10 1 119 
9 9 6 8 4 8 1 120 
7 10 9 7 10 6 2 131 122 
4 8 3 3 8 10 1 122 
10 9 9 10 7 8 1 123 
2 9 8 3 10 5 2 124 698 
7 7 8 9 8 7 3 135 133 125 
1 10 4 8 10 4 2 137 126 
9 7 9 7 10 8 1 127 
5 5 6 10 4 9 1 128 
3 10 6 5 7 7 2 136 129 
4 9 10 10 10 9 1 130 
4 9 10 10 7 8 1 132 
7 9 5 6 7 5 1 132 
3 7 10 7 4 6 1 134 
4 9 10 7 9 10 1 134 
4 9 6 10 4 10 2 140 138 
4 2 10 7 8 5 1 137 
1 10 5 10 9 7 3 151 142 139 
8 9 7 10 7 10 1 138 
5 8 5 9 10 10 2 151 139 
6 9 10 7 9 7 1 141 
8 5 7 10 10 10 2 151 144 
10 6 10 5 8 10 1 143 
1 10 9 8 6 10 1 143 
2 7 8 10 4 6 1 144 
1 5 9 10 5 9 1 145 
10 6 10 10 7 3 2 156 146 
6 7 10 9 9 10 1 147 
1 7 8 10 6 8 1 148 
1 6 7 6 10 6 1 149 
5 8 10 6 5 3 1 150 
4 10 9 4 6 9 1 152 
3 10 5 9 10 4 1 152 
9 7 6 7 10 10 2 155 153 
1 7 9 3 5 10 1 154 
10 8 3 6 10 8 1 157 
7 5 8 7 8 8 1 157 
8 7 4 7 10 9 1 157 
0 0 0 0 0 0 1 702 
0 0 0 0 0 0 3 159 161 609 
7 0 0 1 0 0 2 164 160 
4 0 0 10 0 0 1 162 
4 0 0 4 0 0 2 166 165 
10 0 0 10 0 0 1 163 
10 0 0 7 0 0 1 165 
4 0 0 9 0 0 1 165 
10 0 0 10 0 0 1 167 
7 0 0 8 0 0 1 167 
1 0 0 6 0 0 1 168 
10 0 0 10 0 0 1 169 
0 0 0 0 0 0 5 222 234 276 318 360 
0 0 0 0 0 0 1 171 
2 2 1 8 3 5 2 178 172 
1 6 5 9 10 6 1 173 
5 9 10 4 9 6 1 174 
1 10 5 10 7 9 1 175 
10 9 9 7 5 8 2 180 176 
1 8 4 5 10 9 1 177 
2 3 9 9 6 8 1 179 
10 6 7 3 4 10 1 179 
7 6 9 10 4 7 1 181 
7 10 10 5 6 4 1 181 
9 7 9 10 8 9 1 182 
7 10 5 6 9 7 2 185 183 
3 4 7 6 5 4 1 184 
3 5 6 10 7 6 2 193 186 
5 9 7 10 8 9 1 186 
5 6 7 8 9 6 1 187 
2 9 5 6 10 7 1 188 
3 8 8 7 10 9 3 196 194 189 
7 10 8 10 9 10 2 201 190 
5 6 7 10 10 6 1 191 
3 4 8 6 9 10 1 192 
8 10 5 7 9 6 2 199 195 
5 5 8 6 7 8 2 199 195 
5 10 10 9 6 10 1 195 
9 9 10 9 7 8 1 197 
1 10 5 4 7 8 2 201 200 
2 8 10 5 10 8 1 198 
3 8 9 6 8 3 1 200 
5 8 9 7 10 8 3 206 204 203 
2 9 8 10 6 5 2 204 202 
1 7 10 10 6 10 1 202 
8 6 9 9 6 9 1 203 
3 10 10 10 9 9 2 212 205 
2 9 7 10 10 6 2 212 208 
5 4 9 8 6 10 1 207 
5 6 9 9 7 9 1 207 
7 10 9 2 4 10 1 208 
3 10 7 8 5 10 1 209 
7 7 7 5 9 6 2 218 210 
6 4 8 4 10 10 1 211 
6 5 10 10 9 6 1 213 
2 9 6 10 7 7 1 213 
5 4 10 8 7 5 1 214 
7 9 8 7 5 7 1 215 
1 8 4 7 5 5 1 216 
7 10 8 9 9 5 3 219 217 692 
9 10 7 8 7 10 1 220 
10 4 5 7 10 5 1 219 
9 10 3 6 6 10 1 221 
6 9 9 6 10 7 1 221 
0 0 0 0 0 0 1 702 
0 0 0 0 0 0 1 223 
9 0 0 0 4 0 3 228 225 224 
10 0 0 0 9 0 2 227 226 
8 0 0 0 8 0 1 226 
9 0 0 0 7 0 1 229 
6 0 0 0 8 0 1 229 
9 0 0 0 9 0 1 229 
8 0 0 0 10 0 1 230 
1 0 0 0 5 0 1 231 
8 0 0 0 6 0 2 232 669 
7 0 0 0 9 0 1 233 
0 0 0 0 0 0 5 402 434 466 498 530 
0 0 0 0 0 0 3 235 243 249 
5 2 0 6 4 4 1 236 
1 7 0 10 7 8 1 237 
10 10 0 10 6 7 1 238 
8 8 0 7 7 6 2 239 381 
2 7 0 7 10 3 2 248 240 
5 8 0 6 8 8 1 241 
8 6 0 7 2 9 1 242 
6 8 0 5 10 6 1 244 
7 7 0 10 7 8 1 244 
8 10 0 10 7 4 1 245 
7 10 0 7 10 8 1 246 
2 10 0 6 9 6 1 247 
4 5 0 4 6 5 2 259 250 
8 8 0 9 9 10 2 259 250 
2 10 0 7 9 6 2 259 250 
6 7 0 8 10 10 2 274 251 
5 6 0 3 7 6 2 264 252 
7 8 0 7 6 10 2 273 253 
6 7 0 10 9 10 1 254 
9 7 0 10 10 10 1 255 
1 9 0 10 7 5 1 256 
7 5 0 6 6 5 2 270 257 
8 3 0 6 8 7 3 272 271 258 
9 6 0 6 8 10 1 260 
2 8 0 10 10 10 2 270 262 
4 10 0 9 5 9 1 261 
2 6 0 6 8 5 1 262 
7 7 0 9 6 7 1 263 
10 8 0 10 10 10 1 265 
9 5 0 4 8 8 1 265 
9 8 0 7 9 7 1 266 
2 8 0 10 7 5 1 267 
9 10 0 7 6 10 1 268 
5 7 0 7 6 6 1 269 
5 8 0 5 8 7 1 275 
9 8 0 9 5 7 1 275 
6 5 0 7 5 10 1 275 
5 10 0 8 8 10 1 275 
1 8 0 10 9 10 1 275 
2 10 0 5 8 8 1 275 
0 0 0 0 0 0 1 702 
0 0 0 0 0 0 3 277 280 281 
5 2 3 8 5 0 1 278 
1 7 4 7 8 0 1 279 
8 5 5 8 9 0 1 282 
10 5 4 4 10 0 1 282 
5 10 8 10 8 0 1 282 
3 10 8 9 7 0 1 283 
10 8 4 5 10 0 1 284 
10 10 5 10 10 0 1 285 
5 8 8 4 6 0 2 288 286 
10 4 4 10 4 0 1 287 
5 10 10 9 7 0 1 289 
8 7 10 6 10 0 1 289 
7 7 8 10 6 0 1 290 
3 9 6 6 3 0 1 291 
1 9 10 6 4 0 1 292 
7 8 9 6 10 0 1 293 
5 6 10 10 7 0 3 298 295 294 
4 8 7 4 8 0 1 296 
8 7 8 7 7 0 2 300 299 
9 8 8 9 9 0 2 297 560 
8 10 7 7 4 0 1 299 
4 8 10 10 5 0 1 299 
4 6 7 5 8 0 2 306 301 
5 10 8 7 4 0 2 306 301 
2 3 8 8 10 0 1 302 
4 9 7 7 10 0 1 303 
10 10 10 9 9 0 2 308 304 
6 7 6 7 7 0 1 305 
10 8 8 8 10 0 1 307 
4 7 8 10 6 0 1 307 
1 10 8 10 6 0 2 313 309 
7 3 7 6 9 0 2 310 309 
4 5 8 7 8 0 1 311 
6 5 9 7 7 0 1 311 
2 9 10 6 10 0 1 312 
4 7 9 7 8 0 1 314 
4 9 7 5 7 0 1 314 
9 10 9 9 8 0 1 315 
9 6 8 7 10 0 1 316 
9 10 7 10 6 0 1 317 
0 0 0 0 0 0 1 702 
0 0 0 0 0 0 3 319 325 326 
7 4 0 3 6 2 1 320 
7 4 0 7 8 6 1 321 
4 8 0 9 6 7 2 322 659 
5 2 0 10 10 10 1 323 
4 8 0 9 4 8 1 324 
10 10 0 6 7 10 2 331 327 
9 8 0 6 10 7 2 331 327 
5 7 0 7 6 9 2 331 329 
7 6 0 9 7 7 1 328 
4 10 0 4 3 10 1 329 
8 4 0 7 9 3 1 330 
4 10 0 10 5 7 1 332 
8 10 0 9 6 10 1 332 
9 10 0 10 6 10 1 333 
10 10 0 9 10 5 1 334 
2 10 0 8 5 6 2 342 335 
9 9 0 10 6 7 2 344 336 
10 8 0 8 7 10 2 358 337 
5 10 0 9 10 4 1 338 
2 10 0 6 10 5 1 339 
9 6 0 5 10 9 1 340 
6 3 0 8 7 9 1 341 
2 2 0 8 5 8 3 357 356 343 
2 6 0 10 6 9 3 356 352 343 
4 10 0 7 9 2 2 355 345 
6 7 0 6 6 9 2 355 347 
9 10 0 3 3 10 1 346 
10 7 0 7 7 2 1 347 
1 9 0 9 10 8 1 348 
1 4 0 7 10 10 1 349 
3 5 0 8 10 10 1 350 
8 10 0 6 10 10 1 351 
7 8 0 8 8 7 1 353 
1 7 0 5 6 8 1 353 
3 4 0 9 10 7 1 354 
4 5 0 7 8 6 1 359 
4 10 0 4 10 9 1 359 
10 10 0 10 10 6 1 359 
9 10 0 8 4 10 1 359 
4 9 0 9 10 8 1 359 
0 0 0 0 0 0 1 702 
0 0 0 0 0 0 3 361 374 384 
1 2 3 0 4 4 1 362 
2 6 8 0 7 10 1 363 
7 10 10 0 10 9 1 364 
5 10 5 0 7 10 1 365 
6 9 9 0 5 8 2 379 366 
9 7 9 0 10 10 1 367 
9 5 6 0 10 4 1 368 
6 10 8 0 9 7 1 369 
7 5 9 0 6 6 1 370 
2 10 10 0 10 8 2 400 371 
10 8 9 0 7 5 1 372 
2 9 8 0 10 9 1 373 
9 7 10 0 10 7 2 399 375 
7 4 7 0 8 6 1 375 
10 5 8 0 8 10 3 398 392 376 
1 7 5 0 4 7 1 377 
2 7 9 0 10 6 1 378 
6 10 10 0 9 7 1 380 
7 7 10 0 6 3 1 380 
10 5 9 0 10 5 1 381 
4 9 7 0 9 10 2 397 382 
5 4 4 0 10 10 3 396 395 383 
3 10 10 0 8 5 1 385 
2 7 8 0 4 5 1 385 
8 6 7 0 4 10 1 386 
9 9 6 0 6 4 1 387 
5 5 3 0 7 10 1 388 
2 3 7 0 5 4 1 389 
2 8 5 0 6 4 2 390 694 
7 10 7 0 10 10 1 391 
9 7 10 0 5 6 1 393 
10 10 2 0 10 7 1 393 
6 7 5 0 9 9 1 394 
5 6 10 0 8 9 1 401 
1 9 10 0 8 6 1 401 
5 10 6 0 6 10 1 401 
5 10 9 0 3 10 1 401 
1 9 7 0 8 10 1 401 
5 10 9 0 4 10 1 401 
5 8 6 0 10 10 1 401 
0 0 0 0 0 0 1 702 
0 0 0 0 0 0 2 403 432 
9 4 2 4 0 0 1 404 
4 5 8 8 0 0 1 405 
8 7 7 10 0 0 1 406 
10 4 5 7 0 0 1 407 
10 7 7 3 0 0 2 431 408 
5 5 5 10 0 0 1 409 
2 7 10 8 0 0 4 430 429 428 410 
1 10 8 10 0 0 2 427 411 
4 10 10 6 0 0 3 422 412 629 
10 8 8 3 0 0 1 413 
10 7 10 10 0 0 1 414 
8 2 5 9 0 0 2 426 415 
10 10 8 8 0 0 1 416 
2 9 5 10 0 0 1 417 
5 7 5 6 0 0 1 418 
8 6 4 9 0 0 1 419 
5 9 9 8 0 0 1 420 
6 10 10 7 0 0 1 421 
5 10 10 7 0 0 1 423 
6 5 8 8 0 0 1 423 
4 8 6 7 0 0 1 424 
8 8 6 5 0 0 1 425 
6 10 9 9 0 0 1 433 
8 10 10 10 0 0 1 433 
3 9 9 10 0 0 1 433 
7 5 10 8 0 0 1 433 
6 9 10 5 0 0 1 433 
7 7 7 9 0 0 1 433 
9 10 7 5 0 0 1 433 
4 7 7 6 0 0 1 433 
0 0 0 0 0 0 1 702 
0 0 0 0 0 0 2 435 441 
1 2 0 4 6 0 1 436 
5 9 0 6 7 0 2 439 437 
6 7 0 5 5 0 1 438 
6 7 0 9 4 0 1 440 
1 7 0 6 6 0 1 440 
10 9 0 3 4 0 2 447 442 
10 10 0 8 9 0 3 457 447 444 
10 4 0 10 9 0 1 443 
7 8 0 7 3 0 2 457 444 
8 5 0 10 7 0 1 445 
3 10 0 8 10 0 1 446 
5 8 0 8 8 0 3 461 454 449 
4 9 0 10 10 0 1 448 
5 9 0 10 10 0 2 461 450 
5 8 0 5 6 0 1 450 
3 4 0 10 10 0 2 464 451 
5 9 0 7 10 0 1 452 
6 5 0 4 9 0 1 453 
7 7 0 10 9 0 1 455 
4 10 0 7 7 0 1 455 
6 8 0 6 10 0 1 456 
6 9 0 10 5 0 1 458 
9 8 0 6 5 0 2 461 460 
2 10 0 5 4 0 1 459 
7 5 0 7 6 0 1 460 
8 10 0 5 10 0 1 462 
4 5 0 10 10 0 1 462 
8 6 0 10 10 0 1 463 
6 8 0 9 10 0 2 465 583 
3 9 0 10 6 0 1 465 
0 0 0 0 0 0 1 702 
0 0 0 0 0 0 3 467 495 496 
2 8 2 8 0 0 1 468 
3 10 7 5 0 0 2 494 469 
1 6 6 6 0 0 2 493 470 
7 4 8 6 0 0 1 471 
5 5 6 8 0 0 2 492 472 
7 8 10 8 0 0 3 491 490 473 
4 4 6 5 0 0 1 474 
6 10 9 8 0 0 1 475 
5 6 9 6 0 0 1 476 
6 6 10 9 0 0 1 477 
5 6 8 10 0 0 1 478 
4 6 7 10 0 0 2 489 479 
7 5 10 10 0 0 1 480 
4 10 10 10 0 0 1 481 
6 7 9 9 0 0 1 482 
6 10 8 9 0 0 1 483 
2 10 7 5 0 0 1 484 
4 5 7 10 0 0 1 485 
7 10 6 10 0 0 1 486 
7 4 7 5 0 0 1 487 
5 9 6 6 0 0 1 488 
1 9 8 8 0 0 1 497 
9 7 10 8 0 0 1 497 
9 10 9 10 0 0 1 497 
9 10 4 8 0 0 1 497 
6 10 8 7 0 0 1 497 
4 4 6 4 0 0 1 497 
1 8 6 6 0 0 2 497 591 
10 8 6 7 0 0 1 497 
8 10 10 4 0 0 1 497 
0 0 0 0 0 0 1 702 
0 0 0 0 0 0 2 499 504 
9 2 7 0 5 0 1 500 
1 8 1 0 7 0 1 501 
2 5 9 0 9 0 2 503 502 
2 5 5 0 6 0 1 505 
4 8 5 0 4 0 1 505 
6 4 8 0 10 0 1 505 
8 8 8 0 10 0 2 509 506 
7 5 7 0 6 0 2 512 507 
3 7 9 0 6 0 1 508 
4 9 5 0 9 0 2 516 510 
4 10 6 0 9 0 2 512 510 
1 5 9 0 7 0 1 511 
1 8 6 0 7 0 2 518 513 
5 10 8 0 10 0 2 518 513 
2 6 10 0 10 0 1 514 
6 6 7 0 10 0 2 526 515 
6 9 6 0 8 0 2 523 517 
3 9 8 0 6 0 3 526 523 520 
7 10 7 0 8 0 1 519 
9 4 10 0 4 0 1 519 
10 7 5 0 7 0 1 520 
6 9 10 0 10 0 1 521 
1 10 5 0 10 0 1 522 
5 10 9 0 10 0 2 524 553 
2 10 6 0 5 0 1 524 
2 4 10 0 6 0 1 525 
5 8 10 0 5 0 1 527 
10 9 10 0 10 0 1 527 
3 10 9 0 5 0 1 528 
5 10 10 0 6 0 1 529 
0 0 0 0 0 0 1 702 
0 0 0 0 0 0 1 531 
4 0 0 3 0 0 1 532 
9 0 0 7 0 0 2 538 533 
3 0 0 7 0 0 2 536 534 
1 0 0 8 0 0 2 540 535 
9 0 0 8 0 0 1 537 
1 0 0 10 0 0 2 537 671 
10 0 0 10 0 0 1 539 
2 0 0 8 0 0 1 540 
5 0 0 7 0 0 1 541 
1 0 0 7 0 0 1 541 
0 0 0 0 0 0 5 542 564 586 608 620 
0 0 0 0 0 0 1 543 
7 0 5 0 9 0 1 544 
6 0 6 0 7 0 2 547 545 
7 0 4 0 10 0 2 550 546 
7 0 8 0 10 0 1 548 
9 0 10 0 6 0 1 548 
9 0 7 0 6 0 2 553 549 
9 0 10 0 9 0 2 554 551 
9 0 4 0 4 0 2 553 552 
5 0 6 0 3 0 1 552 
8 0 8 0 7 0 2 556 555 
5 0 8 0 10 0 1 555 
6 0 9 0 8 0 1 555 
7 0 10 0 10 0 1 557 
5 0 8 0 9 0 1 557 
6 0 5 0 10 0 1 558 
8 0 8 0 6 0 2 559 697 
10 0 7 0 7 0 1 560 
8 0 8 0 6 0 1 561 
1 0 9 0 9 0 1 562 
1 0 10 0 4 0 1 563 
0 0 0 0 0 0 1 702 
0 0 0 0 0 0 1 565 
8 6 4 0 0 0 2 569 566 
7 6 10 0 0 0 1 567 
4 5 8 0 0 0 2 568 648 
9 7 6 0 0 0 2 575 570 
9 8 9 0 0 0 2 575 572 
9 9 9 0 0 0 1 571 
2 6 7 0 0 0 2 577 572 
6 9 10 0 0 0 1 573 
3 9 9 0 0 0 1 574 
3 7 6 0 0 0 2 581 576 
1 7 9 0 0 0 1 577 
3 6 10 0 0 0 2 582 578 
10 9 3 0 0 0 2 581 578 
2 10 2 0 0 0 1 579 
1 5 6 0 0 0 1 580 
6 5 9 0 0 0 1 583 
6 7 10 0 0 0 1 583 
5 10 10 0 0 0 1 583 
7 9 6 0 0 0 1 584 
2 10 7 0 0 0 1 585 
0 0 0 0 0 0 1 702 
0 0 0 0 0 0 1 587 
7 0 0 1 2 0 2 592 588 
5 0 0 7 10 0 2 596 589 
5 0 0 8 8 0 1 590 
6 0 0 5 7 0 2 598 591 
1 0 0 8 5 0 2 601 593 
2 0 0 5 8 0 3 601 598 595 
2 0 0 4 10 0 1 594 
9 0 0 10 5 0 1 595 
6 0 0 8 4 0 2 599 597 
3 0 0 10 6 0 3 600 598 646 
1 0 0 8 8 0 1 600 
1 0 0 8 9 0 1 599 
5 0 0 10 10 0 1 602 
8 0 0 6 7 0 1 602 
4 0 0 10 9 0 1 602 
3 0 0 7 9 0 1 603 
3 0 0 8 10 0 1 604 
9 0 0 10 7 0 1 605 
7 0 0 10 6 0 1 606 
5 0 0 7 10 0 1 607 
0 0 0 0 0 0 1 702 
0 0 0 0 0 0 1 609 
8 0 4 0 0 0 1 610 
7 0 9 0 0 0 2 613 611 
2 0 10 0 0 0 1 612 
5 0 5 0 0 0 3 615 614 676 
8 0 7 0 0 0 2 615 614 
9 0 7 0 0 0 2 618 617 
7 0 10 0 0 0 1 616 
6 0 10 0 0 0 1 617 
5 0 5 0 0 0 1 619 
2 0 8 0 0 0 1 619 
0 0 0 0 0 0 5 642 654 666 678 690 
0 0 0 0 0 0 4 621 634 639 640 
2 5 0 0 0 5 2 638 622 
4 6 0 0 0 6 1 623 
8 10 0 0 0 10 2 624 661 
6 8 0 0 0 6 1 625 
8 10 0 0 0 9 1 626 
7 6 0 0 0 9 2 637 627 
10 10 0 0 0 10 1 628 
6 5 0 0 0 10 1 629 
1 10 0 0 0 5 1 630 
6 10 0 0 0 10 1 631 
4 6 0 0 0 5 1 632 
7 10 0 0 0 10 1 633 
8 9 0 0 0 8 1 635 
7 7 0 0 0 7 1 635 
1 5 0 0 0 10 1 636 
7 5 0 0 0 9 1 641 
10 9 0 0 0 4 1 641 
10 4 0 0 0 2 1 641 
1 7 0 0 0 10 1 641 
5 8 0 0 0 5 1 641 
0 0 0 0 0 0 1 702 
0 0 0 0 0 0 2 643 645 
8 0 0 0 0 6 3 648 644 658 
3 0 0 0 0 6 2 652 646 
4 0 0 0 0 8 2 652 649 
1 0 0 0 0 8 1 647 
2 0 0 0 0 9 1 649 
2 0 0 0 0 7 1 649 
2 0 0 0 0 6 1 650 
8 0 0 0 0 6 1 651 
1 0 0 0 0 10 1 653 
5 0 0 0 0 9 1 653 
0 0 0 0 0 0 1 702 
0 0 0 0 0 0 1 655 
7 0 0 0 0 2 2 657 656 
7 0 0 0 0 9 2 663 658 
6 0 0 0 0 8 2 660 659 
2 0 0 0 0 10 1 659 
5 0 0 0 0 8 1 661 
3 0 0 0 0 6 1 661 
4 0 0 0 0 7 1 662 
5 0 0 0 0 6 2 664 687 
1 0 0 0 0 10 1 664 
4 0 0 0 0 9 1 665 
0 0 0 0 0 0 1 702 
0 0 0 0 0 0 2 667 676 
2 0 0 1 0 0 1 668 
10 0 0 8 0 0 1 669 
5 0 0 5 0 0 2 672 670 
7 0 0 10 0 0 2 671 683 
4 0 0 6 0 0 2 675 673 
4 0 0 8 0 0 2 675 673 
1 0 0 10 0 0 1 674 
7 0 0 10 0 0 1 677 
7 0 0 10 0 0 1 677 
3 0 0 7 0 0 1 677 
0 0 0 0 0 0 1 702 
0 0 0 0 0 0 1 679 
9 0 0 0 4 0 2 683 680 
6 0 0 0 5 0 1 681 
8 0 0 0 10 0 1 682 
6 0 0 0 8 0 3 688 687 684 
10 0 0 0 6 0 3 688 687 693 
7 0 0 0 10 0 1 685 
1 0 0 0 10 0 1 686 
4 0 0 0 7 0 1 689 
3 0 0 0 10 0 1 689 
2 0 0 0 5 0 1 689 
0 0 0 0 0 0 1 702 
0 0 0 0 0 0 3 691 697 698 
9 0 0 0 1 0 2 700 692 
4 0 0 0 10 0 1 693 
2 0 0 0 8 0 1 694 
1 0 0 0 9 0 1 695 
6 0 0 0 7 0 1 696 
9 0 0 0 7 0 1 699 
9 0 0 0 9 0 1 699 
6 0 0 0 9 0 1 699 
8 0 0 0 6 0 1 701 
7 0 0 0 9 0 1 701 
0 0 0 0 0 0 1 702 
0 0 0 0 0 0 0 
